1
7
22
36
37
38
23
39
40
41
42
43
44
58
63
67
84
85
86
90
91
97
96
95
82
66
57
35
34
21
8
2
3
9
10
4
11
24
61
60
59
73
72
80
83
79
76
71
70
69
65
62
56
52
51
50
49
48
47
55
46
45
53
74
89
93
98
112
124
125
126
127
131
130
123
121
118
114
105
100
101
102
106
113
110
111
103
104
117
122
129
128
120
116
119
115
109
108
107
99
94
92
88
87
81
78
77
75
68
64
54
26
27
28
29
30
31
33
32
20
19
25
17
15
14
16
18
13
5
12
